100
100
3000 3000 3000 3000 3000 3000 3000 3000 3000 3000 3000 3000 3000 3000 3000 3000 3000 3000 3000 3000 3000 3000 3000 3000 3000 3000 3000 3000 3000 3000 3000 3000 3000 3000 3000 3000 3000 3000 3000 3000 3000 3000 3000 3000 3000 3000 3000 3000 3000 3000 3000 3000 3000 3000 3000 3000 3000 3000 3000 3000 3000 3000 3000 3000 3000 3000 3000 3000 3000 3000 3000 3000 3000 3000 3000 3000 3000 3000 3000 3000 3000 3000 3000 3000 3000 3000 3000 3000 3000 3000 3000 3000 3000 3000 3000 3000 3000 3000 3000 3000
0 1 1
0 22 1
0 29 4
0 38 3
0 47 1
0 58 2
0 66 1
1 21 2
1 23 1
1 24 4
1 41 3
1 43 1
1 64 4
1 79 3
1 88 4
1 93 2
2 22 4
2 38 3
2 42 3
2 44 2
2 45 4
2 49 1
2 59 4
2 73 0
2 77 4
2 86 3
2 88 1
2 95 0
2 96 1
3 0 2
3 36 0
3 39 0
3 41 4
3 43 3
3 52 3
3 56 1
3 60 3
3 87 1
3 90 1
3 93 2
4 24 2
4 27 3
4 35 0
4 42 3
4 43 4
4 50 0
4 56 1
4 57 1
4 65 4
4 82 4
5 7 2
5 13 4
5 14 1
5 20 0
5 27 0
5 29 2
5 51 1
5 64 0
5 86 4
5 89 4
5 91 2
6 3 1
6 9 4
6 17 3
6 19 2
6 20 3
6 26 2
6 44 4
6 59 3
6 63 4
6 84 0
7 4 4
7 50 4
7 59 0
7 67 4
7 80 4
7 83 4
7 86 4
7 94 0
8 5 1
8 10 0
8 15 1
8 16 0
8 20 3
8 23 4
8 30 1
8 31 2
8 37 3
8 44 1
8 61 0
8 64 4
8 66 2
8 67 2
8 76 2
8 87 0
9 2 4
9 10 4
9 24 4
9 61 2
9 65 0
9 66 1
9 68 0
9 70 2
9 71 1
9 80 4
9 92 1
10 6 0
10 7 0
10 11 3
10 21 4
10 36 3
10 74 3
10 90 3
10 93 3
10 94 1
10 96 1
11 3 2
11 32 3
11 53 2
11 64 2
11 83 1
11 97 1
12 6 0
12 23 1
12 38 1
12 42 0
12 43 2
12 45 3
12 48 4
12 51 3
12 53 3
12 74 2
12 97 2
13 7 2
13 14 2
13 18 3
13 36 3
13 46 0
13 67 1
13 69 1
13 95 4
14 12 1
14 31 2
14 40 3
14 49 2
14 58 0
14 95 4
14 99 3
15 7 1
15 19 1
15 25 0
15 27 3
15 52 4
15 53 3
15 54 4
15 72 2
15 75 0
15 84 1
15 97 4
15 99 3
16 4 2
16 11 2
16 18 2
16 31 2
16 54 1
16 56 1
16 70 3
16 87 2
16 89 3
16 91 2
17 9 1
17 15 3
17 33 0
17 41 4
17 50 0
17 51 3
17 87 0
18 25 0
18 28 1
18 30 3
18 34 1
18 39 3
18 44 3
18 45 0
18 50 0
19 5 3
19 13 0
19 14 1
19 52 1
19 53 1
19 54 3
19 68 1
19 69 1
19 70 1
19 75 3
19 83 0
19 84 1
20 12 2
20 27 4
20 29 2
20 30 0
21 24 3
21 30 0
21 33 0
21 50 1
21 71 1
21 72 0
21 76 2
21 81 2
21 82 0
21 83 1
21 91 0
22 1 1
22 3 0
22 15 4
22 49 1
22 62 3
22 71 2
22 73 0
22 78 4
22 81 4
22 85 2
22 87 3
22 98 4
23 13 2
23 18 0
23 55 2
23 70 1
23 72 1
23 82 3
23 89 4
23 94 2
24 0 3
24 9 3
24 17 4
24 39 3
24 52 1
24 58 1
24 81 0
25 3 0
25 28 0
25 29 0
25 49 2
25 54 2
25 60 1
25 62 0
25 69 4
25 74 3
25 82 3
25 83 0
26 5 2
26 14 0
26 17 0
26 44 2
26 46 2
26 47 2
26 55 0
26 66 2
26 73 0
26 86 1
27 3 3
27 4 3
27 20 4
27 27 0
27 29 2
27 32 4
27 36 2
27 45 4
27 54 4
27 99 4
28 0 2
28 4 1
28 20 1
28 26 2
28 29 4
28 30 1
28 32 2
28 46 2
28 48 2
28 60 2
28 63 4
28 75 2
28 80 2
29 0 1
29 2 4
29 9 4
29 25 2
29 26 3
29 40 1
29 49 3
29 67 1
29 86 1
29 94 4
29 95 3
30 1 4
30 19 3
30 20 2
30 35 2
30 37 3
30 38 4
30 54 4
30 57 2
30 75 0
30 93 4
31 6 2
31 31 3
31 36 3
31 41 2
31 58 1
31 62 3
31 64 0
31 78 4
31 85 3
31 88 0
32 0 2
32 10 4
32 16 4
32 18 1
32 63 4
32 85 2
32 94 1
32 97 2
33 30 4
33 55 3
33 77 0
33 85 2
33 86 2
33 87 1
34 0 4
34 10 0
34 26 4
34 33 1
34 66 2
34 77 1
34 84 4
34 96 2
34 97 0
35 6 4
35 8 1
35 9 1
35 25 0
35 40 4
35 55 4
35 76 0
36 2 3
36 40 0
36 47 3
36 54 3
36 57 4
36 58 3
36 61 3
36 77 2
36 78 1
37 2 1
37 5 0
37 8 0
37 33 0
37 46 2
37 48 4
37 49 1
37 50 0
37 68 1
37 69 1
37 78 1
38 9 2
38 32 1
38 37 0
38 57 1
38 58 0
38 70 4
38 98 2
39 1 1
39 3 4
39 15 0
39 19 0
39 26 1
39 35 3
39 39 3
39 41 1
39 67 1
39 74 3
39 81 1
39 84 1
40 1 4
40 19 1
40 34 4
40 40 0
40 54 3
40 56 2
40 57 4
40 59 4
40 69 0
40 70 1
40 73 4
40 77 4
40 95 2
40 96 2
40 99 3
41 1 2
41 11 0
41 15 2
41 24 2
41 29 2
41 35 2
41 38 2
41 43 4
41 51 0
41 80 4
42 2 1
42 5 4
42 13 1
42 19 1
42 21 4
42 51 0
42 59 3
42 80 0
42 84 4
42 87 2
42 89 2
42 90 0
43 11 4
43 17 3
43 30 0
43 34 1
43 37 2
43 42 2
43 60 4
43 79 0
43 87 0
43 89 4
44 7 1
44 31 0
44 35 1
44 42 1
44 45 3
44 49 3
44 75 1
44 85 0
44 93 4
45 22 3
45 25 4
45 38 4
45 49 2
45 53 2
45 56 2
45 62 1
45 63 4
45 82 0
45 85 1
45 98 0
45 99 0
46 28 0
46 31 0
46 34 2
46 91 1
46 98 0
46 99 0
47 5 4
47 30 3
47 43 3
47 50 2
47 51 4
47 68 4
47 71 2
47 78 2
47 90 2
47 98 2
48 26 3
48 52 2
48 73 4
48 74 4
48 76 3
48 99 4
49 12 3
49 13 4
49 18 1
49 33 4
49 55 4
49 61 2
49 74 0
49 80 0
49 88 2
49 90 3
49 94 1
49 95 2
50 8 0
50 14 4
50 16 1
50 25 4
50 48 4
50 52 2
50 59 1
50 62 2
50 72 3
50 76 0
50 79 3
50 97 3
51 0 1
51 41 4
51 57 3
51 64 4
51 71 1
51 81 1
51 85 4
51 92 0
52 22 2
52 43 4
52 67 2
52 90 2
52 91 4
52 99 3
53 6 3
53 11 2
53 23 2
53 24 2
53 27 1
53 34 1
53 42 0
53 57 4
53 60 0
53 61 4
53 66 4
53 68 4
53 95 3
54 4 3
54 12 3
54 20 0
54 40 4
54 74 2
55 8 0
55 24 0
55 33 3
55 39 0
55 62 0
55 63 4
55 67 1
56 12 4
56 13 1
56 22 4
56 26 0
56 28 0
56 33 3
56 47 0
56 55 3
56 61 3
56 63 2
56 64 0
56 70 1
56 77 1
57 3 3
57 14 1
57 24 3
57 35 4
57 36 1
57 41 3
57 44 3
57 50 0
57 55 1
57 68 4
57 72 2
57 73 4
57 76 0
57 81 4
58 29 3
58 37 2
58 45 2
58 47 2
58 63 4
58 71 2
58 77 1
58 93 0
59 6 0
59 13 4
59 27 3
59 41 1
59 42 1
59 48 1
59 59 4
59 91 1
59 96 1
60 5 1
60 22 2
60 28 1
60 32 0
60 34 2
60 35 2
60 51 0
60 55 4
60 75 0
60 86 4
61 1 0
61 40 2
61 45 0
61 71 4
61 89 0
61 90 1
62 17 1
62 19 2
62 24 3
62 35 3
62 36 3
62 53 2
62 76 0
62 97 3
62 99 4
63 1 0
63 10 4
63 12 1
63 20 3
63 43 3
63 54 1
63 65 4
63 69 1
63 70 2
63 80 3
64 4 3
64 14 3
64 26 1
64 48 3
64 63 1
64 74 3
64 76 1
64 78 1
64 92 2
64 94 2
65 7 4
65 10 3
65 13 2
65 15 2
65 16 4
65 25 0
65 32 4
65 47 3
65 50 2
65 52 2
65 65 1
65 82 2
65 83 3
65 86 3
66 1 4
66 5 0
66 21 2
66 46 3
66 48 2
66 53 0
66 60 4
66 65 1
66 96 3
66 98 2
67 12 0
67 35 4
67 38 1
67 45 3
67 52 0
67 56 0
67 61 2
67 80 0
67 82 4
67 95 0
67 96 0
68 5 4
68 6 4
68 8 3
68 20 0
68 28 2
68 34 4
68 39 0
68 49 2
68 55 0
68 82 2
68 86 0
68 94 1
69 2 2
69 37 4
69 39 3
69 51 1
69 59 4
69 83 2
70 7 1
70 9 1
70 16 2
70 17 1
70 31 2
70 38 4
70 52 2
70 77 1
70 78 2
70 79 3
70 80 3
70 81 2
70 91 1
70 94 0
71 21 1
71 38 2
71 56 0
71 71 0
71 95 1
72 22 3
72 23 1
72 27 4
72 31 2
72 32 3
72 49 0
72 60 0
72 65 1
72 66 0
72 69 2
72 81 3
72 82 0
73 4 3
73 11 3
73 22 1
73 23 3
73 25 2
73 31 1
73 43 1
73 47 4
73 60 4
73 66 2
73 73 2
73 83 0
73 92 1
74 10 4
74 12 2
74 17 3
74 18 4
74 21 4
74 25 1
74 26 2
74 50 4
74 51 0
74 58 2
74 61 0
74 63 0
74 69 1
74 73 4
74 74 1
74 89 2
74 90 2
74 93 0
75 1 1
75 2 0
75 75 3
75 76 2
75 78 1
75 86 0
75 97 3
76 7 4
76 9 1
76 17 2
76 33 4
76 36 0
76 39 1
76 40 1
76 44 1
76 65 4
76 72 3
76 79 4
76 83 0
76 92 2
77 0 2
77 16 0
77 19 1
77 22 0
77 27 4
77 44 1
77 53 4
77 61 1
77 69 0
77 82 1
77 98 3
78 14 2
78 15 0
78 25 0
78 26 3
78 45 3
78 47 2
78 60 4
78 66 3
78 75 0
78 79 3
78 88 1
78 91 4
79 7 3
79 8 0
79 15 2
79 16 2
79 23 4
79 37 4
79 56 3
79 57 3
79 63 2
79 68 3
79 84 4
79 85 1
79 88 1
79 92 3
79 97 2
80 2 3
80 3 2
80 8 0
80 14 1
80 48 2
80 51 0
80 90 3
81 13 4
81 15 0
81 16 0
81 29 1
81 37 4
81 42 4
81 43 3
81 45 1
81 48 0
81 73 0
81 74 4
82 6 0
82 18 1
82 21 0
82 23 4
82 29 4
82 31 3
82 34 1
82 47 0
82 54 0
82 56 0
82 62 1
82 71 4
82 75 3
82 83 3
82 93 3
83 8 1
83 24 2
83 30 4
84 6 0
84 12 2
84 18 2
84 33 0
84 41 4
84 48 0
84 58 3
84 60 0
84 62 1
84 75 2
84 79 0
84 87 4
85 8 3
85 17 1
85 36 1
85 46 0
85 67 0
85 79 2
85 97 0
86 4 4
86 16 0
86 17 2
86 18 3
86 19 4
86 28 2
86 34 0
86 37 4
86 41 0
86 42 2
86 46 4
86 79 3
86 90 0
87 3 2
87 7 2
87 8 0
87 9 2
87 21 3
87 30 3
87 32 2
87 40 0
87 52 4
87 53 4
87 59 0
87 72 4
87 73 1
87 77 2
88 2 2
88 4 0
88 5 0
88 55 4
88 68 1
88 70 3
88 88 2
88 94 0
89 10 3
89 38 2
89 39 3
89 42 2
89 44 2
89 47 2
89 68 3
89 70 1
89 89 4
89 93 0
90 19 0
90 32 3
90 36 4
90 64 0
90 66 3
90 88 3
90 99 1
91 2 3
91 9 0
91 21 4
91 37 2
91 40 3
91 46 1
91 58 0
91 72 1
91 92 3
91 93 0
91 95 2
91 96 0
92 6 3
92 13 4
92 14 4
92 28 0
92 35 4
92 44 4
92 57 2
92 62 2
92 85 0
92 89 4
93 11 1
93 27 3
93 59 2
93 64 2
93 67 4
93 72 0
93 79 3
93 85 1
93 91 1
93 98 4
94 10 0
94 11 3
94 20 1
94 21 0
94 28 2
94 62 2
94 65 0
94 68 3
94 69 4
94 76 1
94 77 2
94 78 2
94 96 2
94 98 3
95 3 0
95 12 2
95 16 2
95 23 2
95 32 1
95 56 0
95 61 0
95 64 3
95 72 3
95 81 0
95 88 2
95 96 3
95 98 2
96 0 3
96 23 4
96 53 2
96 58 1
96 65 0
96 67 1
96 78 3
96 84 4
96 92 2
97 4 0
97 10 2
97 11 0
97 18 4
97 22 1
97 28 4
97 34 3
97 46 1
97 65 4
97 84 3
97 91 1
98 15 4
98 81 2
98 84 0
98 92 0
99 0 4
99 11 0
99 33 1
99 39 0
99 46 1
99 57 1
99 71 0
99 80 0
99 87 1
99 88 2
99 89 4
99 92 4
